letting n =  10
letting blocks =  [[1, 8], [2, 2], [2, 4], [2, 6], [3, 5], [3, 6], [3, 7], [4, 3], [4, 4], [4, 5], [4, 6], [4, 7], [5, 3], [5, 4], [6, 3], [6, 5], [6, 6], [6, 10], [7, 1], [7, 2], [7, 7], [7, 8], [8, 5], [9, 7], [9, 10], [10, 2], [10, 7], [10, 10]]
